p cnf 30 26
d 0.875 0.125
d 0.875 0.125
d 0.875 0.125
d 0.875 0.125
d 0.875 0.125
d 0.875 0.125
d 0.875 0.125
d 0.875 0.125
d 0.875 0.125
d 0.875 0.125
d 0.875 0.125
d 0.875 0.125
26
-28
27 -24 -0
24 -27 -0
27 -24 -2
24 -27 -2
27 -25 -4
25 -27 -4
26 -25 -6
25 -26 -6
27 -24 -8
24 -27 -8
27 -24 -10
24 -27 -10
27 -24 -12
24 -27 -12
27 -24 -14
24 -27 -14
28 -29 -16
29 -28 -16
27 -24 -18
24 -27 -18
28 -24 -20
24 -28 -20
28 -25 -22
25 -28 -22